Maximize
  5.5 x_strawberry_cookie + 12 x_sugar_cookie
Subject To
  c1: x_strawberry_cookie <= 100
  c2: x_sugar_cookie <= 80
  c3: x_strawberry_cookie + x_sugar_cookie <= 100
Integer
  x_strawberry_cookie x_sugar_cookie
End